(set-info :source  loris-7.ddns.comp.nus.edu.sg/~project/hip/) 
;Variables declarations
(declare-fun nc () Int)
(declare-fun nd () Int)
(declare-fun nr_7311 () Int)
(declare-fun nl_7308 () Int)
(declare-fun na () Int)
(declare-fun nb () Int)
(declare-fun flted_153_7296 () Int)
(declare-fun flted_121_7758 () Int)
(declare-fun Anon_17 () Int)
(declare-fun na_7282 () Int)
(declare-fun nb_7283 () Int)
(declare-fun Anon_18 () Int)
(declare-fun nc_7284 () Int)
(declare-fun h_7285 () Int)
(declare-fun bhl_7309 () Int)
(declare-fun bhr_7312 () Int)
(declare-fun flted_121_7756 () Int)
(declare-fun h () Int)
;Relations declarations
;Axioms assertions
;Antecedent
(assert (<= 0 na))
(assert (<= flted_153_7296 1))
(assert (<= 0 flted_153_7296))
(assert (<= 0 nb))
(assert (<= 0 nc))
(assert (<= 0 nd))
(assert (= nl_7308 nc))
(assert (= nr_7311 nd))
(assert (<= 0 flted_121_7758))
(assert (= nc_7284 (+ (+ nr_7311 1) nl_7308)))
(assert (= bhl_7309 bhr_7312))
(assert (= flted_153_7296 0))
(assert (= na_7282 na))
(assert (= nb_7283 nb))
(assert (= Anon_17 flted_153_7296))
(assert (= flted_121_7758 (+ (+ (+ 2 nb_7283) na_7282) nc_7284)))
(assert (or (and (and (and (and (and (and (and (and (and (exists ((flted_119_7789 Int)) (and (<= 0 flted_119_7789) (<= flted_119_7789 1))) (exists ((flted_119_7788 Int)) (and (<= 0 flted_119_7788) (<= flted_119_7788 1)))) (exists ((h_7787 Int)) (<= 1 h_7787))) (exists ((h_7786 Int)) (<= 1 h_7786))) (<= 0 na_7282)) (<= 1 h_7285)) (<= 0 nb_7283)) (<= 0 Anon_17)) (<= Anon_17 1)) (<= 0 nc_7284)) (and (and (and (and (and (and (and (and (and (exists ((flted_120_7785 Int)) (and (<= 0 flted_120_7785) (<= flted_120_7785 1))) (exists ((flted_120_7784 Int)) (and (<= 0 flted_120_7784) (<= flted_120_7784 1)))) (exists ((h_7783 Int)) (<= 1 h_7783))) (exists ((h_7782 Int)) (<= 1 h_7782))) (<= 0 na_7282)) (<= 1 h_7285)) (<= 0 nb_7283)) (<= 0 Anon_18)) (<= Anon_18 1)) (<= 0 nc_7284))))
(assert (= flted_121_7756 (+ 2 h_7285)))
(assert (<= 1 h))
(assert (= h_7285 h))
(assert (= bhl_7309 h))
(assert (= bhr_7312 h))
(assert (<= 1 flted_121_7756))
;Negation of Consequence
(assert (not (= flted_121_7756 (+ h 2))))
(check-sat)